CONTCAR\(0\0\1)
1.0
       10.7138004303         0.0000000000         0.0000000000
        0.0017199682        10.7103994896         0.0000000000
        0.0000000000         0.0000000000        24.1121997833
    C    N    H   Sb
   20    8    4    1
Direct
     0.424270010         0.253630019         0.484580007
     0.637070006         0.253660004         0.483020015
     0.269959988         0.620910002         0.485029984
     0.141249994         0.581439998         0.482580005
     0.141249995         0.447670038         0.482740030
     0.269939992         0.408069988         0.485279990
     0.030800000         0.378600013         0.481220025
     0.920229977         0.447520002         0.481160026
     0.920159994         0.581260045         0.480989994
     0.030649998         0.650290000         0.480899974
     0.637019961         0.774980002         0.482670024
     0.597559977         0.903729959         0.480589970
     0.463869992         0.903770028         0.481689977
     0.424439988         0.775070024         0.484250028
     0.394860010         0.014280000         0.481539997
     0.463780016         0.124910003         0.481950028
     0.597490019         0.124930004         0.480850021
     0.666400014         0.014310000         0.479289990
     0.791450061         0.407990029         0.482799990
     0.791389929         0.620650000         0.482530012
     0.530670004         0.329629996         0.485080017
     0.755509968         0.289559984         0.483159988
     0.345839995         0.514450038         0.486460009
     0.306020008         0.739319968         0.485339989
     0.305850002         0.289579996         0.485780000
     0.530730007         0.699140033         0.484849985
     0.755420001         0.739080000         0.482679991
     0.715500001         0.514310019         0.483759985
     0.030409997         0.751990007         0.480559990
     0.030920000         0.276879994         0.481039987
     0.293189999         0.014110000         0.482190027
     0.768030042         0.014300000         0.478209996
     0.531959975         0.514360016         0.521790044
